(declare-fun bvlambda_1_ () (_ BitVec 1))
(declare-fun bvlambda_2_ ()Bool         )
(declare-fun a75 () (Array (_ BitVec 1) (_ BitVec 4)))
(declare-fun a78 () (Array (_ BitVec 11) (_ BitVec 6)))
(assert
(let (($e1 (_ bv0 1)))
(let (($e18 (_ bv0 2)))
(let (($e29 (_ bv270 9)))
(let (($e31 (_ bv0 5)))
(let (($e32 (_ bv0 4)))
(let (($e38 (_ bv0    11)))
(let (($e40 (_ bv0 15)))
(let (($e41 (_ bv0 3)))
(let (($e83 (select a78        $e38 )))
(let (($e84 true                  ))
(let (($e92 (store a75 bvlambda_1_ $e32 )))
(let (($e93 (select $e92 $e84)))
(let (($e110         $e40               ))
(let (($e113 (concat $e31        bvlambda_2_)))
(let (($e125         $e113       ))
(let (($e185                    $e110))
(let (($e416                $e110             ))
(let (($e417         $e416             ))
(let (($e418         $e417             ))
(let (($e419         $e418             ))
(let (($e421                             $e419  ))
(let (($e452 (store a75 $e1 $e93 )))
(let (($e453 (select $e452 bvlambda_2_)))
(let (($e454 (concat $e18 $e453)))
(let (($e455              $e454 ))
                  (bvult $e83  $e455)
                                                                                                                                                                                                                                                                                                                                                                                                                                                                                                                                                                                                                                                                        ))))                              ) ))))                                                                                                                                                                                                                                      )                                                           )           )  )                ))       ))                           )) )     )) )          )                ))
